47
48
67
49
37
16
86
62
6
23
54
76
95
50
12
56
31
11
77
85
57
90
109
9
66
100
60
38
52
10
24
34
89
103
22
2
75
68
15
32
46
80
71
64
78
42
73
82
59
98
26
39
94
17
83
30
65
55
58
87
70
69
63
19
40
29
20
101
91
81
92
107
61
104
44
25
88
41
18
0
110
14
1
5
79
53
97
108
3
21
93
36
72
28
102
4
43
51
84
105
